7 37 517
37 20 714
20 50 763
50 24 868
24 35 296
35 5 323
5 41 714
41 32 362
32 8 678
8 38 368
38 44 690
44 19 1282
19 48 897
48 17 415
17 23 619
23 21 176
21 29 516
29 39 1087
39 46 214
46 36 402
36 15 679
15 27 5519
27 1 4123
1 33 7621
33 31 4957
31 25 299
25 11 545
11 45 436
45 42 1302
42 18 2089
18 12 768
12 9 723
9 14 471
14 2 433
2 52 598
52 16 739
16 22 737
22 10 117
10 53 819
53 34 396
34 54 401
54 47 491
47 4 1017
4 30 380
30 26 1959
26 49 560
49 55 711
55 28 487
28 6 404
6 3 385
3 43 1096
43 13 790
13 51 644
51 40 1042
40 7 1176
